p cnf 99 324
-4 -2 0
-4 -3 0
2 3 4 0
5 -1 0
5 4 0
1 -4 -5 0
-8 6 0
-8 -7 0
-6 7 8 0
-10 8 0
-10 -9 0
-8 9 10 0
-12 -11 0
-12 9 0
11 -9 12 0
13 2 0
13 -12 0
-2 12 -13 0
15 13 0
15 -14 0
-13 14 -15 0
-17 16 0
-17 14 0
-16 -14 17 0
-20 -18 0
-20 19 0
18 -19 20 0
-2 20 -21 0
2 -20 -21 0
-2 -20 21 0
2 20 21 0
-17 -21 -22 0
17 21 -22 0
-17 21 22 0
17 -21 22 0
15 -16 -23 0
-15 16 -23 0
15 16 23 0
-15 -16 23 0
25 23 0
25 -24 0
-23 24 -25 0
-22 -25 -26 0
22 25 -26 0
-22 25 26 0
22 -25 26 0
27 15 0
27 -26 0
-15 26 -27 0
28 -10 0
28 -27 0
10 27 -28 0
-19 17 -29 0
19 -17 -29 0
-19 -17 29 0
19 17 29 0
-30 29 0
-30 12 0
-29 -12 30 0
28 30 -31 0
-28 -30 -31 0
28 -30 31 0
-28 30 31 0
-6 -7 -32 0
6 7 -32 0
-6 7 32 0
6 -7 32 0
33 32 0
33 -24 0
-32 24 -33 0
34 -9 0
34 14 0
9 -14 -34 0
-4 16 -35 0
4 -16 -35 0
-4 -16 35 0
4 16 35 0
-36 -35 0
-36 16 0
35 -16 36 0
-34 -36 -37 0
34 36 -37 0
-34 36 37 0
34 -36 37 0
38 -33 0
38 -37 0
33 37 -38 0
-39 -31 0
-39 -38 0
31 38 39 0
-8 -13 -40 0
8 13 -40 0
-8 13 40 0
8 -13 40 0
19 32 -41 0
-19 -32 -41 0
19 -32 41 0
-19 32 41 0
40 -41 -42 0
-40 41 -42 0
40 41 42 0
-40 -41 42 0
-43 -9 0
-43 14 0
9 -14 43 0
-44 -29 0
-44 -43 0
29 43 44 0
45 -12 0
45 44 0
12 -44 -45 0
-41 -6 -46 0
41 6 -46 0
-41 6 46 0
41 -6 46 0
47 -45 0
47 -46 0
45 46 -47 0
-49 14 0
-49 48 0
-14 -48 49 0
-50 25 0
-50 -15 0
-25 15 50 0
-51 49 0
-51 -50 0
-49 50 51 0
52 47 0
52 -51 0
-47 51 -52 0
-42 -52 -53 0
42 52 -53 0
-42 52 53 0
42 -52 53 0
-55 -20 0
-55 -54 0
20 54 55 0
-53 55 -56 0
53 -55 -56 0
-53 -55 56 0
53 55 56 0
-57 -23 0
-57 -1 0
23 1 57 0
-2 -57 -58 0
2 57 -58 0
-2 57 58 0
2 -57 58 0
-59 -7 0
-59 3 0
7 -3 59 0
60 24 0
60 -4 0
-24 4 -60 0
-60 -61 -62 0
60 61 -62 0
-60 61 62 0
60 -61 62 0
59 -62 -63 0
-59 62 -63 0
59 62 63 0
-59 -62 63 0
13 -15 -64 0
-13 15 -64 0
13 15 64 0
-13 -15 64 0
65 -19 0
65 -64 0
19 64 -65 0
-15 35 -66 0
15 -35 -66 0
-15 -35 66 0
15 35 66 0
67 65 0
67 66 0
-65 -66 -67 0
-63 -67 -68 0
63 67 -68 0
-63 67 68 0
63 -67 68 0
58 68 -69 0
-58 -68 -69 0
58 -68 69 0
-58 68 69 0
-70 64 0
-70 43 0
-64 -43 70 0
-70 -32 -71 0
70 32 -71 0
-70 32 71 0
70 -32 71 0
72 -35 0
72 -71 0
35 71 -72 0
73 69 0
73 72 0
-69 -72 -73 0
-74 -56 0
-74 -73 0
56 73 74 0
-75 39 0
-75 -74 0
-39 74 75 0
76 8 0
76 -8 0
-75 -76 -77 0
75 76 -77 0
-75 76 77 0
75 -76 77 0
-5 -77 -78 0
5 77 -78 0
-5 77 78 0
5 -77 78 0
79 -24 0
79 12 0
24 -12 -79 0
-80 -23 0
-80 41 0
23 -41 80 0
-80 -61 -81 0
80 61 -81 0
-80 61 81 0
80 -61 81 0
-82 -79 0
-82 81 0
79 -81 82 0
-83 32 0
-83 15 0
-32 -15 83 0
82 83 -84 0
-82 -83 -84 0
82 -83 84 0
-82 83 84 0
85 -1 0
85 71 0
1 -71 -85 0
87 61 0
87 -86 0
-61 86 -87 0
88 85 0
88 87 0
-85 -87 -88 0
16 70 -89 0
-16 -70 -89 0
16 -70 89 0
-16 70 89 0
90 -88 0
90 -89 0
88 89 -90 0
-18 -61 -91 0
18 61 -91 0
-18 61 91 0
18 -61 91 0
-92 14 0
-92 -66 0
-14 66 92 0
-93 -19 0
-93 -65 0
19 65 93 0
-94 93 0
-94 2 0
-93 -2 94 0
92 -94 -95 0
-92 94 -95 0
92 94 95 0
-92 -94 95 0
96 91 0
96 -95 0
-91 95 -96 0
90 96 -97 0
-90 -96 -97 0
90 -96 97 0
-90 96 97 0
-84 97 -98 0
84 -97 -98 0
-84 -97 98 0
84 97 98 0
-78 -98 -99 0
78 98 -99 0
-78 98 99 0
78 -98 99 0
36 -95 0
-8 3 -15 -55 0
88 -4 0
67 -10 0
-57 -48 -37 -91 0
-49 83 -73 74 0
37 -42 -8 -60 -10 0
37 49 23 -6 -65 0
61 71 0
69 -49 0
38 67 82 54 41 -83 0
14 28 80 0
-8 25 0
60 51 -73 -80 0
-98 -59 79 53 1 2 0
17 52 -48 41 0
87 -36 23 -75 52 40 0
-45 43 -62 83 0
-21 -91 25 0
-45 41 0
48 26 99 0
79 -40 -1 0
44 6 11 92 0
-40 18 -92 -73 0
-34 -78 0
-41 99 28 -31 -57 27 0
77 -41 56 -96 -15 12 0
22 92 0
-59 -90 79 66 0
18 54 0
-11 55 76 -71 0
66 -63 68 -85 0
95 -12 86 0
-39 75 0
-21 -33 -61 -97 81 0
64 -75 -95 68 -74 36 0
-91 -81 32 -71 -68 0
82 7 0
13 15 45 -59 69 63 0
-21 -28 -95 13 -86 0
-41 -49 -71 -7 30 75 0
-98 22 -62 0
99 0
